25° run output:
{
    "Function": "kroB500.tsp",
    "Problem dimension": [
        358,
        391,
        156,
        411,
        246,
        457,
        269,
        126,
        206,
        420,
        37,
        53,
        129,
        199,
        219,
        22,
        398,
        63,
        423,
        499,
        308,
        160,
        419,
        8,
        405,
        198,
        263,
        340,
        110,
        54,
        341,
        221,
        49,
        191,
        158,
        41,
        13,
        281,
        424,
        167,
        135,
        267,
        226,
        112,
        45,
        366,
        36,
        116,
        208,
        488,
        87,
        326,
        280,
        179,
        78,
        296,
        35,
        118,
        332,
        120,
        436,
        347,
        121,
        354,
        486,
        196,
        229,
        70,
        176,
        286,
        16,
        203,
        496,
        409,
        86,
        479,
        470,
        478,
        230,
        299,
        268,
        323,
        373,
        438,
        355,
        485,
        238,
        292,
        102,
        125,
        104,
        106,
        435,
        148,
        444,
        343,
        66,
        390,
        201,
        439,
        144,
        169,
        462,
        359,
        474,
        413,
        123,
        231,
        319,
        174,
        305,
        21,
        272,
        247,
        481,
        345,
        309,
        147,
        274,
        412,
        313,
        207,
        393,
        422,
        172,
        170,
        446,
        255,
        218,
        327,
        321,
        244,
        460,
        138,
        306,
        377,
        105,
        295,
        346,
        189,
        200,
        342,
        480,
        283,
        28,
        293,
        216,
        51,
        232,
        209,
        447,
        314,
        29,
        239,
        403,
        251,
        73,
        278,
        349,
        495,
        458,
        11,
        399,
        2,
        453,
        137,
        318,
        18,
        378,
        32,
        152,
        331,
        222,
        211,
        98,
        376,
        344,
        23,
        50,
        47,
        443,
        370,
        30,
        124,
        75,
        43,
        451,
        454,
        270,
        388,
        235,
        498,
        256,
        441,
        93,
        264,
        262,
        6,
        143,
        202,
        471,
        127,
        27,
        115,
        395,
        153,
        122,
        5,
        94,
        89,
        76,
        289,
        141,
        374,
        337,
        72,
        369,
        197,
        182,
        234,
        77,
        205,
        214,
        225,
        113,
        339,
        163,
        392,
        383,
        38,
        69,
        431,
        185,
        65,
        175,
        1,
        407,
        258,
        450,
        142,
        236,
        190,
        261,
        52,
        455,
        437,
        140,
        192,
        434,
        472,
        408,
        164,
        14,
        3,
        356,
        312,
        128,
        0,
        81,
        317,
        154,
        184,
        310,
        4,
        132,
        259,
        382,
        400,
        56,
        64,
        195,
        334,
        82,
        233,
        301,
        290,
        302,
        375,
        134,
        159,
        20,
        415,
        217,
        250,
        213,
        386,
        442,
        136,
        372,
        394,
        249,
        404,
        95,
        212,
        177,
        315,
        55,
        186,
        80,
        325,
        494,
        402,
        157,
        489,
        44,
        469,
        371,
        245,
        83,
        416,
        149,
        363,
        459,
        298,
        384,
        297,
        257,
        357,
        475,
        449,
        171,
        228,
        162,
        414,
        328,
        353,
        445,
        227,
        329,
        252,
        74,
        287,
        362,
        42,
        351,
        417,
        166,
        10,
        430,
        273,
        99,
        277,
        150,
        380,
        456,
        183,
        448,
        178,
        57,
        433,
        307,
        483,
        25,
        361,
        473,
        67,
        223,
        48,
        365,
        385,
        119,
        161,
        352,
        254,
        426,
        139,
        243,
        248,
        58,
        180,
        133,
        7,
        482,
        253,
        335,
        79,
        46,
        61,
        428,
        215,
        497,
        107,
        491,
        39,
        117,
        220,
        311,
        440,
        34,
        188,
        427,
        300,
        410,
        265,
        260,
        15,
        401,
        477,
        490,
        84,
        418,
        303,
        381,
        193,
        389,
        241,
        493,
        406,
        71,
        291,
        103,
        114,
        468,
        90,
        92,
        275,
        294,
        379,
        466,
        145,
        181,
        240,
        187,
        465,
        484,
        130,
        350,
        348,
        101,
        204,
        282,
        96,
        151,
        33,
        19,
        85,
        237,
        276,
        387,
        59,
        146,
        194,
        338,
        62,
        12,
        367,
        322,
        279,
        100,
        452,
        173,
        97,
        168,
        68,
        9,
        324,
        476,
        31,
        304,
        330,
        288,
        464,
        108,
        88,
        467,
        316,
        91,
        111,
        60,
        24,
        40,
        360,
        155,
        364,
        421,
        210,
        131,
        429,
        224,
        368,
        242,
        461,
        109,
        333,
        26,
        425,
        463,
        396,
        397,
        432,
        336,
        284,
        492,
        266,
        17,
        285,
        320,
        487,
        271,
        165
    ],
    "Global Optimum": 0,
    "Algorithm": "Genetic algorithm",
    "Parameters": {
        "population": 30,
        "offspring": 30,
        "mutation probability": 0.002,
        "crossover probability": 0.9
    },
    "Fitness": 633025,
    "Solution": [
        358,
        391,
        156,
        411,
        246,
        457,
        269,
        126,
        206,
        420,
        37,
        53,
        129,
        199,
        219,
        22,
        398,
        63,
        423,
        499,
        308,
        160,
        419,
        8,
        405,
        198,
        263,
        340,
        110,
        54,
        341,
        221,
        49,
        191,
        158,
        41,
        13,
        281,
        424,
        167,
        135,
        267,
        226,
        112,
        45,
        366,
        36,
        116,
        208,
        488,
        87,
        326,
        280,
        179,
        78,
        296,
        35,
        118,
        332,
        120,
        436,
        347,
        121,
        354,
        486,
        196,
        229,
        70,
        176,
        286,
        16,
        203,
        496,
        409,
        86,
        479,
        470,
        478,
        230,
        299,
        268,
        323,
        373,
        438,
        355,
        485,
        238,
        292,
        102,
        125,
        104,
        106,
        435,
        148,
        444,
        343,
        66,
        390,
        201,
        439,
        144,
        169,
        462,
        359,
        474,
        413,
        123,
        231,
        319,
        174,
        305,
        21,
        272,
        247,
        481,
        345,
        309,
        147,
        274,
        412,
        313,
        207,
        393,
        422,
        172,
        170,
        446,
        255,
        218,
        327,
        321,
        244,
        460,
        138,
        306,
        377,
        105,
        295,
        346,
        189,
        200,
        342,
        480,
        283,
        28,
        293,
        216,
        51,
        232,
        209,
        447,
        314,
        29,
        239,
        403,
        251,
        73,
        278,
        349,
        495,
        458,
        11,
        399,
        2,
        453,
        137,
        318,
        18,
        378,
        32,
        152,
        331,
        222,
        211,
        98,
        376,
        344,
        23,
        50,
        47,
        443,
        370,
        30,
        124,
        75,
        43,
        451,
        454,
        270,
        388,
        235,
        498,
        256,
        441,
        93,
        264,
        262,
        6,
        143,
        202,
        471,
        127,
        27,
        115,
        395,
        153,
        122,
        5,
        94,
        89,
        76,
        289,
        141,
        374,
        337,
        72,
        369,
        197,
        182,
        234,
        77,
        205,
        214,
        225,
        113,
        339,
        163,
        392,
        383,
        38,
        69,
        431,
        185,
        65,
        175,
        1,
        407,
        258,
        450,
        142,
        236,
        190,
        261,
        52,
        455,
        437,
        140,
        192,
        434,
        472,
        408,
        164,
        14,
        3,
        356,
        312,
        128,
        0,
        81,
        317,
        154,
        184,
        310,
        4,
        132,
        259,
        382,
        400,
        56,
        64,
        195,
        334,
        82,
        233,
        301,
        290,
        302,
        375,
        134,
        159,
        20,
        415,
        217,
        250,
        213,
        386,
        442,
        136,
        372,
        394,
        249,
        404,
        95,
        212,
        177,
        315,
        55,
        186,
        80,
        325,
        494,
        402,
        157,
        489,
        44,
        469,
        371,
        245,
        83,
        416,
        149,
        363,
        459,
        298,
        384,
        297,
        257,
        357,
        475,
        449,
        171,
        228,
        162,
        414,
        328,
        353,
        445,
        227,
        329,
        252,
        74,
        287,
        362,
        42,
        351,
        417,
        166,
        10,
        430,
        273,
        99,
        277,
        150,
        380,
        456,
        183,
        448,
        178,
        57,
        433,
        307,
        483,
        25,
        361,
        473,
        67,
        223,
        48,
        365,
        385,
        119,
        161,
        352,
        254,
        426,
        139,
        243,
        248,
        58,
        180,
        133,
        7,
        482,
        253,
        335,
        79,
        46,
        61,
        428,
        215,
        497,
        107,
        491,
        39,
        117,
        220,
        311,
        440,
        34,
        188,
        427,
        300,
        410,
        265,
        260,
        15,
        401,
        477,
        490,
        84,
        418,
        303,
        381,
        193,
        389,
        241,
        493,
        406,
        71,
        291,
        103,
        114,
        468,
        90,
        92,
        275,
        294,
        379,
        466,
        145,
        181,
        240,
        187,
        465,
        484,
        130,
        350,
        348,
        101,
        204,
        282,
        96,
        151,
        33,
        19,
        85,
        237,
        276,
        387,
        59,
        146,
        194,
        338,
        62,
        12,
        367,
        322,
        279,
        100,
        452,
        173,
        97,
        168,
        68,
        9,
        324,
        476,
        31,
        304,
        330,
        288,
        464,
        108,
        88,
        467,
        316,
        91,
        111,
        60,
        24,
        40,
        360,
        155,
        364,
        421,
        210,
        131,
        429,
        224,
        368,
        242,
        461,
        109,
        333,
        26,
        425,
        463,
        396,
        397,
        432,
        336,
        284,
        492,
        266,
        17,
        285,
        320,
        487,
        271,
        165
    ],
    "Nb of functions evaluations": 50010,
    "Computational time in seconds": 371.56351137161255,
    "Stopping criterion in evaluations": 50000
}